Navios = {1 2 3 4 5 6 7 8 9 10 11 12 13 14 15};
Mares = {1 2 3 4 5 6 7 8 9 10 11 12 13 14 15 16 17 18 19 20 21 22 23 24 25};
Cargas = {"Bauxita" "Alumina" "Manganes" "Ferro"};
Bercos = {1 2 3};

vazao = [5 4 6];
chegada = [1 3 3 5 7 7 8 8 10 11 11 12 12 14 16];
estoque = [35 21 12 20];
consumo = [4 3 2 3];
arregamento = [
[20	0	0	0]
[0	0	14	0]
[16	0	0	0]
[0	12	0	0]
[0	0	0	13]
[0	18	0	0]
[0	13	0	0]
[0	0	0	9]
[0	12	0	0]
[14	0	0	0]
[0	0	0	11]
[0	0	15	0]
[25	0	0	0]
[0	0	0	23]
[0	0	9	0]];
